benchmarks_vrp/CMT11/no_cluster/CMT11_6.vrp
NAME: CMT11_6
TYPE: CVRP
COMMENT: 1042.11 - Cluster Nr.6
DIMENSION: 18
CAPACITY: 200
EDGE_WEIGHT_TYPE: EUC_2D
NODE_COORD_TYPE: TWOD_COORDS
NODE_COORD_SECTION: 
6 90 88
13 87 80
14 85 89
7 93 89
11 90 77
5 94 86
8 54 90
18 93 82
2 93 84
4 10 45
1 54 86
10 83 80
16 85 85
12 50 88
3 83 83
17 87 86
9 85 81
15 46 89
DEPOT_SECTION: 
4
-1
DEMAND_SECTION: 
11 19
1 3
12 7
15 13
9 12
18 17
5 14
16 14
13 8
10 13
17 16
3 11
4 0
7 16
14 10
6 5
8 10
2 7
EOF
