benchmarks_vrp/CMT11/no_cluster/CMT11_6.tour
NAME: CMT11_6 solution
TYPE: TOUR
TOUR_SECTION:
4 10 9 13 11 18 2 5 7 6 14 17 16 3 1 8 12 15 -1
-1
EOF